1408
1   1   0    54   0 5 13 21 29 37 35 27 19 11 3 0
1   2   0    48   0 6 14 12 9 1 0
1   3   0    57   0 8 16 24 32 40 75 67 39 31 23 15 7 0
1   4   0    0    0 0
1   5   0    53   0 4 20 28 36 33 25 17 34 26 18 10 2 0
2   1   0    47   0 48 56 79 71 63 55 47 0
2   2   0    56   0 44 52 60 49 41 42 0
2   3   0    0    0 0
2   4   0    58   0 43 51 59 69 77 80 72 64 61 53 45 0
2   5   0    59   0 46 54 62 70 78 76 68 57 65 73 38 30 22 74 66 58 50 0